\* row_knapsack_problem *\
Minimize
knapsack: 257 row_1 + 254 row_11 + 257 row_12 + 252 row_15 + 252 row_17
 + 254 row_2 + 256 row_20 + 255 row_23 + 251 row_26 + 249 row_34 + 271 row_38
 + 265 row_39 + 248 row_40 + 247 row_46 + 251 row_48 + 255 row_49 + 263 row_50
 + 255 row_52 + 266 row_54 + 293 row_55 + 255 row_56 + 302 row_57 + 280 row_59
 + 254 row_62 + 302 row_63 + 246 row_7
Subject To
sensitivity: 77 row_1 + 80 row_11 + 77 row_12 + 82 row_15 + 82 row_17
 + 80 row_2 + 78 row_20 + 79 row_23 + 83 row_26 + 85 row_34 + 63 row_38
 + 69 row_39 + 86 row_40 + 87 row_46 + 83 row_48 + 79 row_49 + 71 row_50
 + 79 row_52 + 68 row_54 + 41 row_55 + 79 row_56 + 32 row_57 + 54 row_59
 + 80 row_62 + 32 row_63 + 88 row_7 >= 189.4
Bounds
 row_1 <= 1
 row_11 <= 1
 row_12 <= 1
 row_15 <= 1
 row_17 <= 1
 row_2 <= 1
 row_20 <= 1
 row_23 <= 1
 row_26 <= 1
 row_34 <= 1
 row_38 <= 1
 row_39 <= 1
 row_40 <= 1
 row_46 <= 1
 row_48 <= 1
 row_49 <= 1
 row_50 <= 1
 row_52 <= 1
 row_54 <= 1
 row_55 <= 1
 row_56 <= 1
 row_57 <= 1
 row_59 <= 1
 row_62 <= 1
 row_63 <= 1
 row_7 <= 1
End
